p tw 43 49
1 2
2 13
3 4
4 5
5 13
6 7
7 8
8 9
8 13
9 10
10 11
11 12
12 14
13 24
14 15
15 16
15 13
16 17
17 18
17 21
18 19
19 20
20 9
21 22
22 23
23 25
23 9
24 35
25 26
26 27
27 28
28 29
29 30
29 9
30 31
31 32
32 9
33 34
34 36
35 39
36 37
37 38
39 40
40 41
41 42
41 33
42 43
43 3
43 6
